10387
0 1 1 0 0 0 0 1 1 0 0 0 1 1 1 0 0 1 0 1 1 0 1 1 0 0 1 1 0 1
2 13 20 23 7 26 14 17 8 1 2 2 13 7 22 7 12 8 2 19 8 27 2 14 14 27 2 22 19 27 1 27 2 7 26 8 12 1 20 17 27 7 7 27 17 22 27 8 2 20 12 19 19 12 29 13 17 29 26 17 29 27 23 29 17 19 19 26 29 22